\* column_knapsack_problem *\
Minimize
knapsack: 9 col_10 + 9 col_11 + 8 col_12 + 9 col_13 + 9 col_14 + 9 col_15
 + 9 col_17 + 9 col_18 + 9 col_19 + 9 col_20 + 9 col_21 + 9 col_22 + 9 col_24
 + 9 col_25 + 9 col_26 + 9 col_3 + 9 col_30 + 9 col_31 + 9 col_32 + 9 col_33
 + 9 col_35 + 8 col_36 + 9 col_39 + 9 col_4 + 9 col_41 + 9 col_43 + 9 col_46
 + 9 col_47 + 9 col_48 + 9 col_49 + 9 col_6 + 9 col_7 + 9 col_8
Subject To
sensitivity: col_12 + col_36 >= 1.4
Bounds
 col_10 <= 1
 col_11 <= 1
 col_12 <= 1
 col_13 <= 1
 col_14 <= 1
 col_15 <= 1
 col_17 <= 1
 col_18 <= 1
 col_19 <= 1
 col_20 <= 1
 col_21 <= 1
 col_22 <= 1
 col_24 <= 1
 col_25 <= 1
 col_26 <= 1
 col_3 <= 1
 col_30 <= 1
 col_31 <= 1
 col_32 <= 1
 col_33 <= 1
 col_35 <= 1
 col_36 <= 1
 col_39 <= 1
 col_4 <= 1
 col_41 <= 1
 col_43 <= 1
 col_46 <= 1
 col_47 <= 1
 col_48 <= 1
 col_49 <= 1
 col_6 <= 1
 col_7 <= 1
 col_8 <= 1
End
